
<<< setup


<<< generate

CPXPARAM_Simplex_Tolerances_Optimality           0.001
CPXPARAM_Simplex_Tolerances_Feasibility          0.001
CPXPARAM_TimeLimit                               3600
CPXPARAM_Threads                                 8
CPXPARAM_MIP_Tolerances_AbsMIPGap                0.001
CPXPARAM_MIP_Tolerances_MIPGap                   0.001
CPXPARAM_MIP_Tolerances_Integrality              0.001
CPXPARAM_MIP_Display                             4
CPXPARAM_MIP_PolishAfter_Solutions               1
Tried aggregator 1 time.
MIQCP Presolve eliminated 2 rows and 2 columns.
Reduced MIQCP has 39 rows, 135 columns, and 669 nonzeros.
Reduced MIQCP has 0 binaries, 16 generals, 0 SOSs, and 0 indicators.
Reduced MIQCP has 4 quadratic constraints.
Presolve time = 0.00 sec. (0.26 ticks)
MIP emphasis: balance optimality and feasibility.
MIP search method: dynamic search.
Parallel mode: deterministic, using up to 8 threads.
Dual infeasible due to empty column 'x(2)'.
Presolve time = 0.00 sec. (0.03 ticks)
Tried aggregator 1 time.
LP Presolve eliminated 35 rows and 35 columns.
Aggregator did 2 substitutions.
Reduced LP has 2 rows, 98 columns, and 66 nonzeros.
Presolve time = 0.00 sec. (0.05 ticks)
Initializing dual steep norms . . .

Iteration log . . .
Iteration:     1    Scaled infeas =             0.000000
Root relaxation solution time = 0.02 sec. (0.16 ticks)

        Nodes                                         Cuts/
   Node  Left     Objective  IInf  Best Integer    Best Bound    ItCnt     Gap

      0     0      175.1189    16                    175.1189       20         
*     0+    0                          207.6693      175.1189            15.67%
Found incumbent of value 207.669313 after 0.14 sec. (32.51 ticks)

Starting condition for polishing reached (PolishAfterIntSol).
Starting solution polishing.

      0     2      175.1189    16      207.6693      175.1189       39   15.67%
Elapsed time = 0.14 sec. (35.64 ticks, tree = 0.01 MB, solutions = 1)
*     1+    1                          181.2612      175.1189             3.39%
Found incumbent of value 181.261152 after 0.19 sec. (107.25 ticks)
*     1+    1                          181.1409      175.1189             3.32%
Found incumbent of value 181.140858 after 0.28 sec. (292.27 ticks)
*     1+    1                          181.1408      175.1189             3.32%
Found incumbent of value 181.140765 after 0.31 sec. (331.31 ticks)
*     1+    1                          180.5074      175.1189             2.99%
Found incumbent of value 180.507359 after 0.48 sec. (460.40 ticks)
      1     3      175.8322    15      180.5074      175.1189       52    2.99%
      2     3      175.9035    15      180.5074      175.1189       60    2.99%
      3     4      177.8303    14      180.5074      175.1189       65    2.99%
      4     2        cutoff            180.5074      175.1189       96    2.99%
      5     5      175.9039    14      180.5074      175.8322       92    2.59%
      6     6      179.1361    13      180.5074      175.8322      104    2.59%
      7     5      175.9037    14      180.5074      175.8322       96    2.59%
      8     6      178.8443    12      180.5074      175.8322      100    2.59%
      9     6      177.9369    13      180.5074      175.9035      169    2.55%
     11     7      179.1364    12      180.5074      175.9035      188    2.55%
Elapsed time = 45.13 sec. (67864.51 ticks, tree = 0.01 MB, solutions = 8)
     13     6      178.7159    13      180.5074      175.9037      167    2.55%
     14     9      179.2989    12      180.5074      175.9037      219    2.55%
     15     8      177.9368    13      180.5074      175.9037      205    2.55%
     16     9      179.4936    12      180.5074      175.9037      220    2.55%
     17     9        cutoff            180.5074      175.9037      255    2.55%
     18    10      179.2229    12      180.5074      175.9037      240    2.55%
     19    13      179.0917    13      180.5074      175.9037      303    2.55%
     20    15      179.2992    11      180.5074      175.9037      331    2.55%
     21    10        cutoff            180.5074      175.9037      276    2.55%
     22    14      179.0918    12      180.5074      175.9037      317    2.55%
Elapsed time = 75.50 sec. (96412.12 ticks, tree = 0.01 MB, solutions = 8)
     23    16      179.2224    12      180.5074      177.9368      346    1.42%
     24    17      179.4938    11      180.5074      177.9368      360    1.42%
     25    16      179.8071    12      180.5074      177.9368      378    1.42%
     26    18      179.8976    11      180.5074      177.9368      419    1.42%
     27    15        cutoff            180.5074      177.9368      422    1.42%
     28    19      179.9010    10      180.5074      177.9368      439    1.42%
     29    18      179.8073    12      180.5074      177.9368      447    1.42%
     30    19      179.8975    11      180.5074      177.9368      464    1.42%
     31    18    infeasible            180.5074      177.9368      492    1.42%
     32    21      180.4812    10      180.5074      177.9368      493    1.42%
Elapsed time = 106.67 sec. (133702.74 ticks, tree = 0.01 MB, solutions = 8)
     33    22      179.9830    11      180.5074      177.9368      511    1.42%
     34    21        cutoff            180.5074      177.9368      535    1.42%
     35    20        cutoff            180.5074      177.9368      608    1.42%
     36    21        cutoff            180.5074      177.9368      604    1.42%
     37    24      179.9832    11      180.5074      177.9368      618    1.42%
     38    23        cutoff            180.5074      177.9368      632    1.42%
     39    22    infeasible            180.5074      177.9369      669    1.42%
     40    23        cutoff            180.5074      177.9369      674    1.42%
     41    24        cutoff            180.5074      177.9369      692    1.42%
     42    25      179.5518    12      180.5074      177.9369      719    1.42%
Elapsed time = 133.55 sec. (166678.73 ticks, tree = 0.01 MB, solutions = 8)
     43    24      179.2993    11      180.5074      177.9369      765    1.42%
     44    23      180.1497     9      180.5074      177.9369      787    1.42%
     46    21        cutoff            180.5074      177.9369      821    1.42%
     47    22      179.5924    10      180.5074      178.7159      848    0.99%
     48    19        cutoff            180.5074      178.7159      866    0.99%
     49    20      180.0968    10      180.5074      178.7159      887    0.99%
     50    19        cutoff            180.5074      178.7159      911    0.99%
     51    22      179.9011    11      180.5074      178.7159      929    0.99%
     52    21        cutoff            180.5074      178.7159      950    0.99%
     54    21      179.5516    12      180.5074      179.0917      984    0.78%
Elapsed time = 166.84 sec. (200131.02 ticks, tree = 0.01 MB, solutions = 8)
     55    22      180.1743     9      180.5074      179.0917      999    0.78%
     56    21      179.3416    11      180.5074      179.0917     1016    0.78%
     57    20        cutoff            180.5074      179.0917     1034    0.78%
     58    21      179.4940    11      180.5074      179.0917     1061    0.78%
     59    20        cutoff            180.5074      179.0917     1072    0.78%
     60    21      179.3415    11      180.5074      179.0917     1094    0.78%
     61    18        cutoff            180.5074      179.0917     1115    0.78%
     62    19        cutoff            180.5074      179.0917     1126    0.78%
     63    20        cutoff            180.5074      179.0917     1148    0.78%
     64    23      179.5862    10      180.5074      179.0917     1166    0.78%
Elapsed time = 193.80 sec. (236155.70 ticks, tree = 0.01 MB, solutions = 8)
     65    22      180.2074     9      180.5074      179.0917     1183    0.78%
     66    23      179.7335    10      180.5074      179.0917     1209    0.78%
     67    22      180.1497     9      180.5074      179.0917     1226    0.78%
     69    22      179.8831     9      180.5074      179.2224     1266    0.71%
     71    20      179.7333    10      180.5074      179.2224     1305    0.71%
     72    21      180.4097     9      180.5074      179.2224     1323    0.71%
     73    20        cutoff            180.5074      179.2224     1338    0.71%
     74    23      179.9699     9      180.5074      179.2224     1360    0.71%
     75    25      180.4097     9      180.5074      179.2224     1407    0.71%
     78    26      180.4688     8      180.5074      179.2224     1418    0.71%
Elapsed time = 238.38 sec. (280897.95 ticks, tree = 0.01 MB, solutions = 8)
     79    26      179.9697     9      180.5074      179.2224     1468    0.71%
     80    25        cutoff            180.5074      179.2224     1478    0.71%
     81    26      180.3097     8      180.5074      179.2224     1493    0.71%
     82    25        cutoff            180.5074      179.2224     1512    0.71%
     83    28      179.8135     9      180.5074      179.2224     1538    0.71%
     84    26      180.3837     8      180.5074      179.2224     1577    0.71%
     86    25        cutoff            180.5074      179.2224     1562    0.71%
     87    26        cutoff            180.5074      179.2224     1620    0.71%
     88    27      180.1438    10      180.5074      179.2224     1636    0.71%
     89    28      180.4034     7      180.5074      179.2224     1650    0.71%
Elapsed time = 275.39 sec. (323101.54 ticks, tree = 0.01 MB, solutions = 8)
     90    27      180.1905     8      180.5074      179.2224     1666    0.71%
     91    28      180.0192     8      180.5074      179.2224     1692    0.71%
     92    26        cutoff            180.5074      179.2224     1732    0.71%
     94    25        cutoff            180.5074      179.2224     1754    0.71%
     95    26      180.1904     8      180.5074      179.2224     1774    0.71%
     96    25        cutoff            180.5074      179.2224     1791    0.71%
     97    28      180.4866     6      180.5074      179.2224     1812    0.71%
     98    29      180.3915     7      180.5074      179.2224     1826    0.71%
     99    29      179.8136     9      180.5074      179.2224     1861    0.71%
    102    25        cutoff            180.5074      179.2224     1906    0.71%
Elapsed time = 309.52 sec. (360278.08 ticks, tree = 0.01 MB, solutions = 8)
    103    28      180.3914     7      180.5074      179.2224     1917    0.71%
    104    25        cutoff            180.5074      179.2224     1929    0.71%
    105    26        cutoff            180.5074      179.2224     1955    0.71%
    106    27        cutoff            180.5074      179.2224     1976    0.71%
    107    29      179.5924    10      180.5074      179.2224     2011    0.71%
    109    27      180.0969    10      180.5074      179.2224     2051    0.71%
    110    28      180.2049     8      180.5074      179.2224     2024    0.71%
    111    26        cutoff            180.5074      179.2224     2069    0.71%
    112    27      180.1563     8      180.5074      179.2224     2079    0.71%
    113    24        cutoff            180.5074      179.2224     2101    0.71%
Elapsed time = 341.81 sec. (402758.12 ticks, tree = 0.01 MB, solutions = 8)
    114    23        cutoff            180.5074      179.2224     2120    0.71%
    115    27      180.2050     7      180.5074      179.2224     2165    0.71%
    119    26        cutoff            180.5074      179.2224     2220    0.71%
    121    26        cutoff            180.5074      179.3415     2255    0.65%
    122    27      180.4814     9      180.5074      179.3415     2277    0.65%
    123    29      180.1563     8      180.5074      179.3415     2315    0.65%
    127    26        cutoff            180.5074      179.3415     2374    0.65%
    129    26        cutoff            180.5074      179.3415     2412    0.65%
    130    27        cutoff            180.5074      179.3415     2441    0.65%
    131    30      180.4032     7      180.5074      179.3415     2454    0.65%
Elapsed time = 397.63 sec. (465880.65 ticks, tree = 0.01 MB, solutions = 8)
    135    30        cutoff            180.5074      179.3415     2529    0.65%
    136    29        cutoff            180.5074      179.3415     2547    0.65%
    137    28        cutoff            180.5074      179.3415     2566    0.65%
    138    27        cutoff            180.5074      179.3415     2591    0.65%
    139    28        cutoff            180.5074      179.3415     2610    0.65%
    143    30        cutoff            180.5074      179.3415     2701    0.65%
    144    29        cutoff            180.5074      179.3415     2713    0.65%
    145    30      180.4085     8      180.5074      179.3415     2726    0.65%
    146    29      180.3837     8      180.5074      179.3415     2744    0.65%
    147    26        cutoff            180.5074      179.3415     2766    0.65%
Elapsed time = 444.31 sec. (518827.40 ticks, tree = 0.01 MB, solutions = 8)
    151    28        cutoff            180.5074      179.3415     2836    0.65%
    153    28        cutoff            180.5074      179.3415     2872    0.65%
    155    30      180.1744     9      180.5074      179.3415     2915    0.65%
    159    26        cutoff            180.5074      179.3415     2986    0.65%
    161    24        cutoff            180.5074      179.3415     3016    0.65%
    163    28      180.5056     2      180.5074      179.3415     3082    0.65%
    167    24        cutoff            180.5074      179.3415     3126    0.65%
    168    22        cutoff            180.5074      179.3415     3166    0.65%
    169    21        cutoff            180.5074      179.3415     3186    0.65%
    170    23        cutoff            180.5074      179.3415     3227    0.65%
Elapsed time = 508.66 sec. (598034.22 ticks, tree = 0.01 MB, solutions = 8)
    174    22        cutoff            180.5074      179.8136     3369    0.38%
    176    19        cutoff            180.5074      180.3097     3427    0.11%

Root node processing (before b&c):
  Real time             =    0.14 sec. (32.52 ticks)
Parallel b&c, 8 threads:
  Real time             =  536.38 sec. (651998.11 ticks)
  Sync time (average)   =   51.37 sec.
  Wait time (average)   =    0.00 sec.
                          ------------
Total (root+branch&cut) =  536.52 sec. (652030.63 ticks)

<<< solve


OBJECTIVE: 180.5074
X*: [-109.23 3.6481 -4.0001 3.6481 -4.0001 3.6481 -4.0001 3.6481 -3.9999 3.6482
     -3.9996 3.6484 -3.9987 3.6488 -3.9965 3.6498] Z*: [10 4 -4 4 -4 4 -4 4 -4 4 -4 4 -2 4 -2 5]
f*:180.507358817

<<< post process


<<< done

